Route #1: 31 46 35
Route #2: 66 84 90 68
Route #3: 20 41 22 15
Route #4: 27 97 19
Route #5: 25 65 78 42 28
Route #6: 44 67 88 40
Route #7: 3 77 63
Route #8: 69 16 55 76
Route #9: 86 9 92
Route #10: 57 72 36 29 43 45 2 7
Route #11: 5 12 58
Route #12: 1 70 54
Route #13: 38 47 26 48 96 64 34
Route #14: 23 61 100
Route #15: 21 56 94 80
Route #16: 74 13 4
Route #17: 39 10 18
Route #18: 81 51 83
Route #19: 75 93
Route #20: 8 17
Route #21: 50 91 52
Route #22: 89 98 99 62 71
Route #23: 32 33 53 73 95 24
Route #24: 59 60 82
Route #25: 87 37 6 49 14
Route #26: 79 11 85 30
Cost 27591.0000
Time 16.0005